
Gurobi 11.0.2 (win64) logging started Wed Aug 14 20:35:12 2024

Set parameter LogFile to value "D:\Documenti\Scuola\Laurea magistrale unibs\laurea-unibs-mkfsp\output\2024-08-14T16_44_40.946359\logs\instance11_bucket6.log"
Set parameter TimeLimit to value 3.1558024400001159e+01
Set parameter MIPGap to value 0
Gurobi Optimizer version 11.0.2 build v11.0.2rc0 (win64 - Windows 10.0 (19045.2))

CPU model: Intel(R) Core(TM) i5-4670 CPU @ 3.40GHz, instruction set [SSE2|AVX|AVX2]
Thread count: 4 physical cores, 4 logical processors, using up to 4 threads

Optimize a model with 5776 rows, 25634 columns and 715318 nonzeros
Model fingerprint: 0x4e6178bc
Variable types: 0 continuous, 25634 integer (25337 binary)
Coefficient statistics:
  Matrix range     [1e+00, 9e+03]
  Objective range  [6e+02, 9e+03]
  Bounds range     [1e+00, 1e+00]
  RHS range        [1e+00, 1e+06]
Presolve time: 1.51s
Presolved: 5776 rows, 25634 columns, 715318 nonzeros
Variable types: 0 continuous, 25634 integer (25337 binary)
Deterministic concurrent LP optimizer: primal simplex, dual simplex, and barrier
Showing barrier log only...

Root barrier log...

Ordering time: 0.14s

Barrier statistics:
 AA' NZ     : 7.681e+05
 Factor NZ  : 8.647e+05 (roughly 17 MB of memory)
 Factor Ops : 2.864e+08 (less than 1 second per iteration)
 Threads    : 1

                  Objective                Residual
Iter       Primal          Dual         Primal    Dual     Compl     Time
   0   1.03468291e+08  1.16312246e+08  5.19e+06 0.00e+00  6.91e+05     3s
   1   1.99255463e+07  1.20227082e+08  8.73e+05 5.97e-13  1.25e+05     3s
   2   1.55069777e+06  1.10420875e+08  7.66e+03 7.39e-13  3.40e+03     3s
   3   1.39667134e+06  3.18683977e+07  8.84e+01 6.11e-13  6.69e+02     3s
   4   1.42306000e+06  4.55269697e+06  6.26e-14 1.39e-13  6.81e+01     3s
   5   1.48734578e+06  1.65611539e+06  3.69e-14 3.91e-14  3.67e+00     3s
   6   1.49638153e+06  1.51599642e+06  1.09e-13 3.02e-14  4.27e-01     3s
   7   1.49825593e+06  1.50037916e+06  3.14e-13 3.02e-14  4.62e-02     3s
   8   1.49857088e+06  1.49955526e+06  9.05e-13 3.57e-14  2.14e-02     4s
   9   1.49876968e+06  1.49907422e+06  2.02e-12 4.05e-14  6.63e-03     4s
  10   1.49888741e+06  1.49901939e+06  3.77e-12 2.88e-14  2.87e-03     4s
  11   1.49890917e+06  1.49898557e+06  1.10e-11 3.06e-14  1.66e-03     4s
  12   1.49895530e+06  1.49897228e+06  2.87e-11 3.78e-14  3.70e-04     4s
  13   1.49895999e+06  1.49896849e+06  1.91e-10 3.53e-14  1.85e-04     4s
  14   1.49896627e+06  1.49896690e+06  3.07e-10 2.77e-14  1.36e-05     4s
  15   1.49896656e+06  1.49896656e+06  2.14e-11 2.95e-14  1.02e-07     4s
  16   1.49896656e+06  1.49896656e+06  2.58e-08 3.55e-14  1.16e-09     5s

Barrier solved model in 16 iterations and 4.57 seconds (3.29 work units)
Optimal objective 1.49896656e+06


Root crossover log...

    1859 DPushes remaining with DInf 9.1759784e-06                 7s
       0 DPushes remaining with DInf 0.0000000e+00                 8s

     225 PPushes remaining with PInf 2.2652809e-04                 8s
       0 PPushes remaining with PInf 0.0000000e+00                 8s

  Push phase complete: Pinf 0.0000000e+00, Dinf 2.2889672e+00      8s


Root simplex log...

Iteration    Objective       Primal Inf.    Dual Inf.      Time
    2085    1.4989666e+06   0.000000e+00   2.288967e+00      8s
    2086    1.4989666e+06   0.000000e+00   0.000000e+00      8s
Concurrent spin time: 0.00s

Solved with barrier
    2086    1.4989666e+06   0.000000e+00   0.000000e+00      8s

Root relaxation: objective 1.498967e+06, 2086 iterations, 6.21 seconds (3.74 work units)
Total elapsed time = 28.04s (DegenMoves)

    Nodes    |    Current Node    |     Objective Bounds      |     Work
 Expl Unexpl |  Obj  Depth IntInf | Incumbent    BestBd   Gap | It/Node Time

     0     0 1498966.56    0 2182          - 1498966.56      -     -   31s

Explored 1 nodes (20074 simplex iterations) in 31.57 seconds (33.45 work units)
Thread count was 4 (of 4 available processors)

Solution count 0

Time limit reached
Best objective -, best bound 1.498966562281e+06, gap -
